#===============================================================================
# Created using the Atomic Simulation Environment (ASE)

# Tue Jun 17 15:01:45 2025

#=======================================================
lattice_vector 20.0000000000000000 0.0000000000000000 0.0000000000000000 
lattice_vector 0.0000000000000000 20.0000000000000000 0.0000000000000000 
lattice_vector 0.0000000000000000 0.0000000000000000 20.0000000000000000 
atom 1.5500000000000000 1.5500000000000000 1.5000000000000000 O
atom 1.5500000000000000 2.3069500000000001 2.0858800000000000 H
atom 1.5500000000000000 0.7930500000000000 2.0858800000000000 H
